     Program PWSCF v.5.1.1 starts on  8Apr2017 at  0:36:42

     Current dimensions of program PWSCF are:
     Max number of different atomic species (ntypx) = 10
     Max number of k-points (npk) =  40000
     Max angular momentum in pseudopotentials (lmaxx) =  3

     Subspace diagonalization in iterative solution of the eigenvalue problem:
     a serial algorithm will be used

     bravais-lattice index     =            0
     lattice parameter (alat)  =      30.2356  a.u.
     unit-cell volume          =   27641.1785 (a.u.)^3
     number of atoms/cell      =           60
     number of atomic types    =            1
     number of electrons       =       240.00
     number of Kohn-Sham states=          150
     kinetic-energy cutoff     =      40.0000  Ry
     charge density cutoff     =     160.0000  Ry
     convergence threshold     =      1.0E-15
     mixing beta               =       0.6000
     number of iterations used =            8  plain     mixing
     Exchange-correlation      =  SLA  PZ   NOGX NOGC ( 1  1  0  0 0 0)

     celldm(1)=  30.235618  celldm(2)=   0.000000  celldm(3)=   0.000000
     celldm(4)=   0.000000  celldm(5)=   0.000000  celldm(6)=   0.000000

     crystal axes: (cart. coord. in units of alat)
               a(1) = (   1.000000   0.000000   0.000000 )
               a(2) = (   0.000000   1.000000   0.000000 )
               a(3) = (   0.000000   0.000000   1.000000 )

     reciprocal axes: (cart. coord. in units 2 pi/alat)
               b(1) = (  1.000000  0.000000  0.000000 )
               b(2) = (  0.000000  1.000000  0.000000 )
               b(3) = (  0.000000  0.000000  1.000000 )

     PseudoPot. # 1 for C  read from file:
     /home/risueno/CalcsPengProject/QE_files/PP/C.pz-vbc.UPF
     MD5 check sum: ab53dd623bfeb79c5a7b057bc96eae20
     Pseudo is Norm-conserving, Zval =  4.0
     Generated by new atomic code, or converted to UPF format
     Using radial grid of  269 points,  1 beta functions with:
                l(1) =   0

     atomic species   valence    mass     pseudopotential
        C              4.00    12.01070     C ( 1.00)

     No symmetry found
          (note:  1 additional sym.ops. were found but ignored
           their fractional translations are incommensurate with FFT grid)

   Cartesian axes

     site n.     atom                  positions (alat units)
         1           C   tau(   1) = (   0.1392433   0.0372640   0.1675628  )
         2           C   tau(   2) = (   0.1958538   0.0101990   0.1020866  )
         3           C   tau(   3) = (   0.0838682  -0.0194912   0.2034074  )
         4           C   tau(   4) = (   0.1948081  -0.0725267   0.0751010  )
         5           C   tau(   5) = (   0.2009540  -0.0914354  -0.0133661  )
         6           C   tau(   6) = (   0.2030947   0.0774892   0.0417268  )
         7           C   tau(   7) = (   0.2089868   0.0593302  -0.0431748  )
         8           C   tau(   8) = (   0.2079035  -0.0268662  -0.0712823  )
         9           C   tau(   9) = (  -0.0282021   0.0859839   0.2017685  )
        10           C   tau(  10) = (   0.0294904   0.1451036   0.1644012  )
        11           C   tau(  11) = (  -0.0015692   0.0053618   0.2208531  )
        12           C   tau(  12) = (   0.1115013   0.1212621   0.1476705  )
        13           C   tau(  13) = (   0.1509618   0.1461166   0.0699035  )
        14           C   tau(  14) = (  -0.0164855   0.1948178   0.1041133  )
        15           C   tau(  15) = (   0.0214002   0.2186960   0.0294975  )
        16           C   tau(  16) = (   0.1068296   0.1938239   0.0120362  )
        17           C   tau(  17) = (  -0.1338072  -0.0528582   0.1678145  )
        18           C   tau(  18) = (  -0.1615563   0.0311564   0.1479314  )
        19           C   tau(  19) = (  -0.0554511  -0.0654890   0.2035145  )
        20           C   tau(  20) = (  -0.1098605   0.0991493   0.1645704  )
        21           C   tau(  21) = (  -0.1026135   0.1664445   0.1042071  )
        22           C   tau(  22) = (  -0.2081827   0.0275931   0.0702255  )
        23           C   tau(  23) = (  -0.2012389   0.0921626   0.0123085  )
        24           C   tau(  24) = (  -0.1473529   0.1630077   0.0296437  )
        25           C   tau(  25) = (  -0.0316355  -0.1873443   0.1125990  )
        26           C   tau(  26) = (  -0.1132678  -0.1741778   0.0753680  )
        27           C   tau(  27) = (  -0.0033126  -0.1341228   0.1753519  )
        28           C   tau(  28) = (  -0.1633079  -0.1083232   0.1024212  )
        29           C   tau(  29) = (  -0.2092638  -0.0586034   0.0421172  )
        30           C   tau(  30) = (  -0.1071120  -0.1931048  -0.0130950  )
        31           C   tau(  31) = (  -0.1512436  -0.1453967  -0.0709619  )
        32           C   tau(  32) = (  -0.2033751  -0.0767669  -0.0427830  )
        33           C   tau(  33) = (   0.1371067  -0.1316617   0.1124558  )
        34           C   tau(  34) = (   0.1076032  -0.1871470   0.0470830  )
        35           C   tau(  35) = (   0.0827906  -0.1056969   0.1752906  )
        36           C   tau(  36) = (   0.0249622  -0.2144287   0.0471535  )
        37           C   tau(  37) = (  -0.0216816  -0.2179762  -0.0305479  )
        38           C   tau(  38) = (   0.1470657  -0.1622802  -0.0306932  )
        39           C   tau(  39) = (   0.1023284  -0.1657177  -0.1052558  )
        40           C   tau(  40) = (   0.0162033  -0.1940941  -0.1051621  )
        41           C   tau(  41) = (  -0.1395257  -0.0365409  -0.1686170  )
        42           C   tau(  42) = (  -0.1117853  -0.1205451  -0.1487341  )
        43           C   tau(  43) = (  -0.0297732  -0.1443869  -0.1654611  )
        44           C   tau(  44) = (  -0.0841535   0.0202170  -0.2044642  )
        45           C   tau(  45) = (  -0.1373902   0.1323880  -0.1135040  )
        46           C   tau(  46) = (  -0.1950938   0.0732500  -0.0761586  )
        47           C   tau(  47) = (  -0.1961359  -0.0094774  -0.1031410  )
        48           C   tau(  48) = (  -0.0830736   0.1064188  -0.1763356  )
        49           C   tau(  49) = (   0.0313517   0.1880679  -0.1136482  )
        50           C   tau(  50) = (  -0.0252445   0.2151466  -0.0481979  )
        51           C   tau(  51) = (  -0.1078882   0.1878730  -0.0481288  )
        52           C   tau(  52) = (   0.0030286   0.1348418  -0.1763966  )
        53           C   tau(  53) = (   0.1335248   0.0535821  -0.1688677  )
        54           C   tau(  54) = (   0.1630265   0.1090485  -0.1034762  )
        55           C   tau(  55) = (   0.1129863   0.1749022  -0.0764270  )
        56           C   tau(  56) = (   0.0551694   0.0662126  -0.2045718  )
        57           C   tau(  57) = (   0.0279183  -0.0852613  -0.2028265  )
        58           C   tau(  58) = (   0.1095776  -0.0984249  -0.1656262  )
        59           C   tau(  59) = (   0.1612777  -0.0304338  -0.1489917  )
        60           C   tau(  60) = (   0.0012858  -0.0046373  -0.2219125  )

     number of k points=     1
                       cart. coord. in units 2pi/alat
        k(    1) = (   0.0000000   0.0000000   0.0000000), wk =   2.0000000

     Largest allocated arrays     est. size (Mb)     dimensions
     Largest temporary arrays     est. size (Mb)     dimensions

     Initial potential from superposition of free atoms
     Check: negative starting charge=   -0.063623

     starting charge  239.99829, renormalised to  240.00000

     negative rho (up, down):  6.362E-02 0.000E+00
     Starting wfc are  240 randomized atomic wfcs

     Self-consistent Calculation

     iteration #  1     ecut=    40.00 Ry     beta=0.60
     CG style diagonalization
     ethr =  1.00E-02,  avg # of iterations =  3.0

     negative rho (up, down):  2.190E-02 0.000E+00

     total energy              =    -677.57079248 Ry
     Harris-Foulkes estimate   =    -681.61529555 Ry
     estimated scf accuracy    <       6.64770587 Ry

[...]

     iteration #  5     ecut=    40.00 Ry     beta=0.60
     CG style diagonalization
     c_bands:  4 eigenvalues not converged
     ethr =  1.08E-06,  avg # of iterations =  4.8

     negative rho (up, down):  1.625E-07 0.000E+00

[...]

     iteration # 18     ecut=    40.00 Ry     beta=0.60
     CG style diagonalization
     c_bands:  1 eigenvalues not converged
     ethr =  1.00E-13,  avg # of iterations =  3.1

[...]

     total energy              =    -678.92181486 Ry
     Harris-Foulkes estimate   =    -678.92181486 Ry
     estimated scf accuracy    <          2.5E-15 Ry

     iteration # 23     ecut=    40.00 Ry     beta=0.60
     CG style diagonalization
     ethr =  1.00E-13,  avg # of iterations =  3.0

     End of self-consistent calculation

          k = 0.0000 0.0000 0.0000 (118265 PWs)   bands (ev):

   -23.1396 -22.6301 -22.6295 -22.6292 -21.6587 -21.6587 -21.6583 -21.6580
   -21.6575 -20.6472 -20.6468 -20.6467 -19.8124 -19.8121 -19.8119 -19.8113
   -18.5449 -18.5444 -18.5443 -18.5437 -18.5434 -18.0693 -18.0692 -18.0687
   -18.0681 -16.5442 -16.5435 -16.5434 -16.5433 -16.5424 -16.4309 -16.4306
   -16.4304 -15.4388 -15.4383 -15.4378 -14.3496 -14.3489 -14.3487 -14.3478
   -14.3477 -14.1376 -14.1371 -14.1361 -13.9706 -12.7115 -12.7109 -12.7106
   -12.7103 -11.9040 -11.9035 -11.9024 -11.9022 -11.9022 -11.6820 -11.6807
   -11.6805 -11.0951 -11.0947 -11.0940 -11.0618 -10.4643 -10.4641 -10.4634
   -10.3816 -10.3808 -10.3802 -10.3800  -9.8691  -9.8677  -9.8674  -9.8664
    -9.8655  -9.4789  -9.4786  -9.4778  -9.4772  -9.3291  -9.3289  -9.3285
    -9.3283  -9.3280  -9.1986  -9.1973  -9.1962  -8.6990  -8.6972  -8.6965
    -8.6957  -8.0026  -8.0021  -8.0019  -7.6773  -7.6771  -7.6765  -7.6759
    -7.6758  -7.4619  -7.4613  -7.4608  -7.4604  -7.3586  -7.3580  -7.3575
    -7.3572  -7.3565  -5.8667  -5.8662  -5.8659  -5.8658  -5.8654  -5.7421
    -5.7420  -5.7411  -5.7407  -4.5463  -4.5463  -4.5463  -4.5463  -4.5463
    -2.8693  -2.8693  -2.8693  -1.7314  -1.7306  -1.7295  -0.8979  -0.8970
    -0.8962  -0.6714  -0.6711  -0.6699  -0.6692  -0.6688   0.1960   0.8727
     0.8739   0.8751   0.8755   0.8765   1.1834   1.1834   1.1836   1.2800
     1.2817   1.2828   1.2830   1.3252   1.3766   1.3774

     highest occupied, lowest unoccupied level (ev):    -4.5463   -2.8693

!    total energy              =    -678.92181464 Ry
     Harris-Foulkes estimate   =    -678.92181486 Ry
     estimated scf accuracy    <          9.2E-16 Ry

     The total energy is the sum of the following terms:

     one-electron contribution =   -5802.19317687 Ry
     hartree contribution      =    2927.74851044 Ry
     xc contribution           =    -206.60300844 Ry
     ewald contribution        =    2402.12586023 Ry

     convergence has been achieved in  23 iterations

     Forces acting on atoms (Ry/au):

     atom    1 type  1   force =     0.00006509   -0.00003158    0.00001643
     atom    2 type  1   force =     0.00003702   -0.00004163   -0.00001630
     atom    3 type  1   force =     0.00003781    0.00000016   -0.00003608
     atom    4 type  1   force =     0.00001201   -0.00003587   -0.00003791
     atom    5 type  1   force =    -0.00004177   -0.00002934   -0.00003084
     atom    6 type  1   force =    -0.00000043   -0.00004169   -0.00003997
     atom    7 type  1   force =    -0.00004541   -0.00003048   -0.00002667
     atom    8 type  1   force =    -0.00003845   -0.00000527   -0.00005665
     atom    9 type  1   force =     0.00004468    0.00000845    0.00003437
     atom   10 type  1   force =     0.00006321   -0.00002242    0.00000871
     atom   11 type  1   force =     0.00003663   -0.00001626    0.00002046
     atom   12 type  1   force =     0.00005118   -0.00001718   -0.00001442
     atom   13 type  1   force =     0.00001373   -0.00002683   -0.00003949
     atom   14 type  1   force =     0.00005173   -0.00002308    0.00001089
     atom   15 type  1   force =     0.00002556   -0.00000992    0.00000239
     atom   16 type  1   force =     0.00003296    0.00000892   -0.00001781
     atom   17 type  1   force =    -0.00002222   -0.00000731    0.00004761
     atom   18 type  1   force =    -0.00001644    0.00000107    0.00006917
     atom   19 type  1   force =     0.00001032    0.00000831   -0.00000522
     atom   20 type  1   force =     0.00005060   -0.00001907    0.00001933
     atom   21 type  1   force =     0.00006915   -0.00003922    0.00002868
     atom   22 type  1   force =     0.00002960    0.00000313    0.00005401
     atom   23 type  1   force =     0.00003948    0.00003329    0.00003160
     atom   24 type  1   force =    -0.00000095    0.00003734    0.00002080
     atom   25 type  1   force =    -0.00000214   -0.00005418    0.00001012
     atom   26 type  1   force =    -0.00000884   -0.00005170    0.00002562
     atom   27 type  1   force =    -0.00000573    0.00002037   -0.00005222
     atom   28 type  1   force =     0.00002798    0.00001282    0.00000839
     atom   29 type  1   force =     0.00004110    0.00003105    0.00001731
     atom   30 type  1   force =    -0.00002721   -0.00000472    0.00001626
     atom   31 type  1   force =    -0.00000760    0.00003328    0.00003758
     atom   32 type  1   force =     0.00000336    0.00004349    0.00003138
     atom   33 type  1   force =     0.00003612   -0.00005274   -0.00003315
     atom   34 type  1   force =     0.00003863   -0.00005361   -0.00002771
     atom   35 type  1   force =    -0.00001567    0.00001744   -0.00008409
     atom   36 type  1   force =    -0.00000925    0.00000094   -0.00001128
     atom   37 type  1   force =    -0.00002100    0.00001924   -0.00000209
     atom   38 type  1   force =    -0.00000594   -0.00003026   -0.00001957
     atom   39 type  1   force =    -0.00007073    0.00004633   -0.00002350
     atom   40 type  1   force =    -0.00005141    0.00002930   -0.00000541
     atom   41 type  1   force =    -0.00006309    0.00002968   -0.00002236
     atom   42 type  1   force =    -0.00004875    0.00001763    0.00001454
     atom   43 type  1   force =    -0.00005983    0.00002394   -0.00000782
     atom   44 type  1   force =    -0.00003588   -0.00000530    0.00004381
     atom   45 type  1   force =    -0.00003241    0.00005174    0.00003705
     atom   46 type  1   force =    -0.00000603    0.00003749    0.00004039
     atom   47 type  1   force =    -0.00003372    0.00004166    0.00000916
     atom   48 type  1   force =     0.00001508   -0.00002133    0.00009007
     atom   49 type  1   force =    -0.00000120    0.00004556   -0.00000694
     atom   50 type  1   force =     0.00001417    0.00000266    0.00001380
     atom   51 type  1   force =    -0.00004191    0.00005578    0.00003100
     atom   52 type  1   force =     0.00000450   -0.00002418    0.00005745
     atom   53 type  1   force =     0.00002295    0.00000279   -0.00005595
     atom   54 type  1   force =    -0.00002700   -0.00002027   -0.00002123
     atom   55 type  1   force =     0.00000385    0.00004811   -0.00002454
     atom   56 type  1   force =    -0.00001423   -0.00001157    0.00000829
     atom   57 type  1   force =    -0.00004566   -0.00000800   -0.00003591
     atom   58 type  1   force =    -0.00005571    0.00001325   -0.00002072
     atom   59 type  1   force =     0.00001298    0.00000065   -0.00007050
     atom   60 type  1   force =    -0.00003488    0.00000916   -0.00001031

     Total force =     0.000448     Total SCF correction =     0.000000

     Writing output data file pwscf.save

     General routines

     Parallel routines

   This run was terminated on:   0:42:58   8Apr2017

   JOB DONE.